(declare-fun bvlambda_11_ () (_ BitVec 1))
(declare-fun a92 () (Array (_ BitVec 1) (_ BitVec 4)))
(assert
(let (($e22 (_ bv0  4)))
(let (($e159 (store a92 (not false)        $e22 )))
(let (($e161 (select $e159 (not   bvlambda_11_))))
             (   extract      $e161)
                                                                                                                                                                                                                                                                                                                                                                                                                                                                                                                                                                       ) )                                                                                                            )                     )
